NPROCS=0
This instance is clustered!
Gurobi Optimizer version 9.0.0 build v9.0.0rc2 (linux64)
Optimize a model with 18 rows, 82 columns and 162 nonzeros
Model fingerprint: 0xd932cb38
Variable types: 1 continuous, 81 integer (81 binary)
Coefficient statistics:
  Matrix range     [1e+00, 1e+00]
  Objective range  [7e-01, 1e+01]
  Bounds range     [1e+00, 1e+00]
  RHS range        [1e+00, 1e+00]
Presolve removed 2 rows and 24 columns
Presolve time: 0.00s
Presolved: 16 rows, 58 columns, 114 nonzeros
Variable types: 1 continuous, 57 integer (57 binary)

Root relaxation: objective 2.159022e+01, 16 iterations, 0.00 seconds

    Nodes    |    Current Node    |     Objective Bounds      |     Work
 Expl Unexpl |  Obj  Depth IntInf | Incumbent    BestBd   Gap | It/Node Time

     0     0   22.32060    0    6          -   22.32060      -     -    0s
H    0     0                      51.8601436   22.32060  57.0%     -    0s
H    0     0                      36.6610263   22.32060  39.1%     -    0s
     0     0   22.43318    0   16   36.66103   22.43318  38.8%     -    0s
     0     0   22.43318    0   16   36.66103   22.43318  38.8%     -    0s
H    0     0                      36.6477079   22.43318  38.8%     -    1s
     0     2   22.43318    0   16   36.64771   22.43318  38.8%     -    1s
   344   140 infeasible   14        36.64771   25.25032  31.1%   2.2   21s
   686   222   29.03378   12   14   36.64771   26.87225  26.7%   2.3   40s
   998   291     cutoff   17        36.64771   27.51176  24.9%   2.3   55s
  1185   332   30.25471   17    6   36.64771   28.52565  22.2%   2.3   67s
  1425   365     cutoff   19        36.64771   29.03629  20.8%   2.3   80s
  1713   434   34.98284   21    -   36.64771   29.19829  20.3%   2.3   97s
  2061   500 infeasible   21        36.64771   29.95856  18.3%   2.2  115s
  2388   538 infeasible   13        36.64771   30.44747  16.9%   2.2  132s
  2644   554     cutoff   12        36.64771   30.85459  15.8%   2.2  146s
  2884   625     cutoff   16        36.64771   31.31695  14.5%   2.2  159s
  2918   567     cutoff   15        36.64771   31.53773  13.9%   2.2  161s
  3150   558     cutoff   13        36.64771   31.80749  13.2%   2.2  173s
  3372   549 infeasible   18        36.64771   32.25127  12.0%   2.2  186s
  3579   531 infeasible   17        36.64771   32.68873  10.8%   2.1  195s
  3759   489     cutoff    7        36.64771   32.91539  10.2%   2.1  203s
  3951   424     cutoff   19        36.64771   33.04014  9.84%   2.1  209s
  4138   377     cutoff   17        36.64771   33.54911  8.46%   2.1  217s
  4314   289     cutoff   19        36.64771   34.19436  6.69%   2.1  225s
  4494   213 infeasible   16        36.64771   34.51711  5.81%   2.1  232s
  4675    94   36.31897   17    6   36.64771   34.84126  4.93%   2.1  239s
  4856     0     cutoff   18        36.64771   35.12651  4.15%   2.0  242s

Cutting planes:
  Gomory: 1
  Lazy constraints: 1527

Explored 4975 nodes (9995 simplex iterations) in 243.55 seconds
Thread count was 12 (of 12 available processors)

Solution count 3: 36.6477 36.661 51.8601 

Optimal solution found (tolerance 1.00e-04)
Best objective 3.664770785422e+01, best bound 3.664770785422e+01, gap 0.0000%

User-callback calls 11735, time in user-callback 242.93 sec
---> instance_name: n_7_m_6.dat
---> algo_index: 1
---> obj_value: 36.6477
---> total_time: 243.621
---> total_time_gurobi: 243.548
---> total_nb_benders_cuts: 1419
---> total_nb_subtour_cuts: 111
---> total_nb_user_cuts: 0
---> GRB_IntAttr_Status: 2
---> optimality_gap: 0
---> node_count: 4975
 =====>>>>> Solution is written to file in <../ret/model_outs> !!!
===>> All Done!
